experiments/mac_ortools/detailed-output/inst-21-386405867.dzn

A = 8;
T = 98;
X = 7;
Y = 7;
Z = 5;
building = array2d(0..6, 0..6,
                   [0, 0, 0, 0, 0, 0, 0, 0, 4, 1, 0, 0, 3, 0, 0, 0, 0, 0, 0, 0, 0, 0, 0, 0, 0, 0, 0, 0,
                    0, 0, 0, 0, 0, 0, 0, 0, 0, 0, 4, 0, 0, 0, 0, 0, 0, 0, 0, 0, 0]);
